sing20180920.12
TTAA 70121 48698
99008 23615 30003 00089 23026 29005 92771 22256 31511
85505 19456 34022 70149 10050 34026 50587 04903 12503
40759 13907 09517 30971 30129 13019 25098 40942 10021
20245 53939 10031 15423 69531 06543 10658 78359 09518
88118 78757 08061
77118 08061 425//=
TTCC 70127 48698
70866 73564 17503
88999
77999=
TTDD 7012/ 48698
11974 77560 22966 73562 33953 73762 44929 70165 55721
75363 66679 73164
21212 11977 08010 22941 13003 33924 24010 44853 25028
55788 25019 66755 27511 77679 10007=
